language Essence 1.3

letting class be function(1 --> 1, 2 --> 1, 3 --> 1, 4 --> 1, 5 --> 1, 6 --> 1, 7 --> 1)
letting deck_length be 31
letting deck_width be 61
letting length be function(1 --> 21, 2 --> 5, 3 --> 6, 4 --> 25, 5 --> 2, 6 --> 17, 7 --> 30)
letting n_classes be 1
letting n_containers be 7
letting separation be function()
letting width be function(1 --> 3, 2 --> 28, 3 --> 5, 4 --> 12, 5 --> 3, 6 --> 1, 7 --> 7)
